20
1 0 18
2 1 17
3 0 3
3 1 3
3 2 11
4 0 13
4 1 6
4 2 16
4 3 13
5 0 5
5 1 1
5 2 18
5 3 4
5 4 15
6 0 13
6 1 9
6 2 4
6 3 1
6 4 10
6 5 3
7 0 11
7 2 16
7 3 12
7 5 20
7 6 4
8 0 7
8 1 10
8 3 9
8 4 1
8 5 2
8 6 13
9 0 5
9 1 3
9 2 11
9 3 7
9 4 8
9 5 15
9 7 6
9 8 3
10 0 1
10 1 17
10 3 17
10 5 9
10 7 11
10 8 19
10 9 11
11 0 12
11 1 12
11 2 5
11 3 8
11 4 8
11 5 18
11 8 8
11 9 1
11 10 3
12 0 18
12 1 7
12 3 7
12 6 20
12 7 5
12 8 18
12 10 15
13 0 13
13 1 13
13 3 4
13 4 2
13 5 10
13 6 15
13 7 4
13 8 4
13 9 8
13 10 17
13 12 10
14 0 7
14 1 3
14 2 18
14 4 18
14 7 13
14 8 3
14 9 19
14 10 8
14 11 14
14 12 14
14 13 1
15 0 20
15 1 10
15 2 2
15 3 4
15 4 5
15 5 3
15 6 12
15 7 14
15 8 18
15 9 7
15 10 13
15 11 18
15 12 8
15 13 12
15 14 20
16 1 11
16 2 8
16 5 15
16 7 13
16 9 16
16 13 16
16 15 8
17 0 19
17 1 12
17 2 6
17 3 17
17 4 16
17 7 19
17 10 4
17 11 3
17 12 13
17 14 16
18 0 7
18 1 1
18 2 20
18 3 17
18 4 1
18 5 5
18 6 19
18 7 17
18 9 1
18 10 8
18 11 17
18 12 20
18 13 3
18 14 8
18 16 13
18 17 9
19 1 12
19 2 9
19 4 18
19 5 1
19 6 1
19 7 15
19 9 2
19 10 17
19 12 16
19 13 19
19 14 3
19 15 13
19 16 16
19 18 18
